rcpsp/heur_output_bi_constraints/Log=10/heurj90.txt
encoding rcpsp/j90.sm/j906_10.sm nv: 1741428 nc: 3642410 enctime: 33.44
encoding rcpsp/j90.sm/j906_10.sm nv: 304512 nc: 633584 enctime: 3.90
c File: j906_10.smnaivebi10.wcnf
c optimal
c final solution cost: 94
c CPU time: 7.126472
s OPTIMUM FOUND

c File: j906_10.smbi10.wcnf
c optimal
c final solution cost: 94
c CPU time: 0.858241
s OPTIMUM FOUND


rcpsp/heur_output_bi_constraints/Log=10/heurj90.txt
encoding rcpsp/j90.sm/j906_1.sm nv: 1408808 nc: 2909723 enctime: 25.10
encoding rcpsp/j90.sm/j906_1.sm nv: 295296 nc: 607403 enctime: 3.60
c File: j906_1.smnaivebi10.wcnf
c optimal
c final solution cost: 76
c CPU time: 4.758609
s OPTIMUM FOUND

c File: j906_1.smbi10.wcnf
c optimal
c final solution cost: 76
c CPU time: 0.721838
s OPTIMUM FOUND


rcpsp/heur_output_bi_constraints/Log=10/heurj90.txt
encoding rcpsp/j90.sm/j906_2.sm nv: 1550172 nc: 3215930 enctime: 28.36
encoding rcpsp/j90.sm/j906_2.sm nv: 282420 nc: 583062 enctime: 3.56
c File: j906_2.smnaivebi10.wcnf
c optimal
c final solution cost: 65
c CPU time: 12.114243
s OPTIMUM FOUND

c File: j906_2.smbi10.wcnf
c optimal
c final solution cost: 65
c CPU time: 3.838138
s OPTIMUM FOUND


rcpsp/heur_output_bi_constraints/Log=10/heurj90.txt
encoding rcpsp/j90.sm/j906_3.sm nv: 1438976 nc: 3008655 enctime: 27.99
encoding rcpsp/j90.sm/j906_3.sm nv: 236544 nc: 491490 enctime: 3.12
c File: j906_3.smnaivebi10.wcnf
c optimal
c final solution cost: 73
c CPU time: 16.878494
s OPTIMUM FOUND

c File: j906_3.smbi10.wcnf
c optimal
c final solution cost: 73
c CPU time: 1.584847
s OPTIMUM FOUND


rcpsp/heur_output_bi_constraints/Log=10/heurj90.txt
encoding rcpsp/j90.sm/j906_4.sm nv: 1674092 nc: 3448065 enctime: 29.53
encoding rcpsp/j90.sm/j906_4.sm nv: 288394 nc: 591171 enctime: 3.65
c File: j906_4.smnaivebi10.wcnf
c optimal
c final solution cost: 80
c CPU time: 6.093547
s OPTIMUM FOUND

c File: j906_4.smbi10.wcnf
c optimal
c final solution cost: 80
c CPU time: 0.747458
s OPTIMUM FOUND


rcpsp/heur_output_bi_constraints/Log=10/heurj90.txt
encoding rcpsp/j90.sm/j906_5.sm nv: 1545403 nc: 3209438 enctime: 28.20
encoding rcpsp/j90.sm/j906_5.sm nv: 257051 nc: 530814 enctime: 3.28
c File: j906_5.smnaivebi10.wcnf
c optimal
c final solution cost: 71
c CPU time: 6.169055
s OPTIMUM FOUND

c File: j906_5.smbi10.wcnf
c optimal
c final solution cost: 71
c CPU time: 0.627735
s OPTIMUM FOUND


rcpsp/heur_output_bi_constraints/Log=10/heurj90.txt
encoding rcpsp/j90.sm/j906_6.sm nv: 1556856 nc: 3239540 enctime: 29.07
encoding rcpsp/j90.sm/j906_6.sm nv: 296544 nc: 614060 enctime: 3.74
c File: j906_6.smnaivebi10.wcnf
c optimal
c final solution cost: 90
c CPU time: 5.100554
s OPTIMUM FOUND

c File: j906_6.smbi10.wcnf
c optimal
c final solution cost: 90
c CPU time: 0.642981
s OPTIMUM FOUND


rcpsp/heur_output_bi_constraints/Log=10/heurj90.txt
encoding rcpsp/j90.sm/j906_7.sm nv: 1787916 nc: 3667104 enctime: 29.88
encoding rcpsp/j90.sm/j906_7.sm nv: 280904 nc: 573283 enctime: 3.50
c File: j906_7.smnaivebi10.wcnf
c optimal
c final solution cost: 69
c CPU time: 5.135690
s OPTIMUM FOUND

c File: j906_7.smbi10.wcnf
c optimal
c final solution cost: 69
c CPU time: 0.581261
s OPTIMUM FOUND


rcpsp/heur_output_bi_constraints/Log=10/heurj90.txt
encoding rcpsp/j90.sm/j906_8.sm nv: 1690040 nc: 3502223 enctime: 30.71
encoding rcpsp/j90.sm/j906_8.sm nv: 250500 nc: 515824 enctime: 2.48
c File: j906_8.smnaivebi10.wcnf
c optimal
c final solution cost: 64
c CPU time: 13.205444
s OPTIMUM FOUND

c File: j906_8.smbi10.wcnf
c optimal
c final solution cost: 64
c CPU time: 3.385471
s OPTIMUM FOUND


rcpsp/heur_output_bi_constraints/Log=10/heurj90.txt
encoding rcpsp/j90.sm/j906_9.sm nv: 1699360 nc: 3510254 enctime: 29.78
encoding rcpsp/j90.sm/j906_9.sm nv: 237360 nc: 487229 enctime: 3.02
c File: j906_9.smnaivebi10.wcnf
c optimal
c final solution cost: 64
c CPU time: 5.371923
s OPTIMUM FOUND

c File: j906_9.smbi10.wcnf
c optimal
c final solution cost: 64
c CPU time: 0.477146
s OPTIMUM FOUND


rcpsp/heur_output_bi_constraints/Log=10/heurj90.txt
encoding rcpsp/j90.sm/j907_10.sm nv: 2051472 nc: 4239478 enctime: 36.60
encoding rcpsp/j90.sm/j907_10.sm nv: 375408 nc: 772430 enctime: 4.66
c File: j907_10.smnaivebi10.wcnf
c optimal
c final solution cost: 98
c CPU time: 6.375518
s OPTIMUM FOUND

c File: j907_10.smbi10.wcnf
c optimal
c final solution cost: 98
c CPU time: 0.712350
s OPTIMUM FOUND


rcpsp/heur_output_bi_constraints/Log=10/heurj90.txt
encoding rcpsp/j90.sm/j907_1.sm nv: 2185475 nc: 4446029 enctime: 35.86
encoding rcpsp/j90.sm/j907_1.sm nv: 409489 nc: 830367 enctime: 5.01
c File: j907_1.smnaivebi10.wcnf
c optimal
c final solution cost: 88
c CPU time: 5.988854
s OPTIMUM FOUND

c File: j907_1.smbi10.wcnf
c optimal
c final solution cost: 88
c CPU time: 0.709898
s OPTIMUM FOUND


rcpsp/heur_output_bi_constraints/Log=10/heurj90.txt
encoding rcpsp/j90.sm/j907_2.sm nv: 2013235 nc: 4108863 enctime: 33.82
encoding rcpsp/j90.sm/j907_2.sm nv: 307174 nc: 623994 enctime: 3.89
c File: j907_2.smnaivebi10.wcnf
c optimal
c final solution cost: 71
c CPU time: 6.974672
s OPTIMUM FOUND

c File: j907_2.smbi10.wcnf
c optimal
c final solution cost: 71
c CPU time: 0.634443
s OPTIMUM FOUND


rcpsp/heur_output_bi_constraints/Log=10/heurj90.txt
encoding rcpsp/j90.sm/j907_3.sm nv: 2005481 nc: 4114229 enctime: 34.88
encoding rcpsp/j90.sm/j907_3.sm nv: 313482 nc: 640137 enctime: 3.98
c File: j907_3.smnaivebi10.wcnf
c optimal
c final solution cost: 66
c CPU time: 7.000585
s OPTIMUM FOUND

c File: j907_3.smbi10.wcnf
c optimal
c final solution cost: 66
c CPU time: 1.609605
s OPTIMUM FOUND


rcpsp/heur_output_bi_constraints/Log=10/heurj90.txt
encoding rcpsp/j90.sm/j907_4.sm nv: 1639891 nc: 3375740 enctime: 29.27
encoding rcpsp/j90.sm/j907_4.sm nv: 228822 nc: 468132 enctime: 2.27
c File: j907_4.smnaivebi10.wcnf
c optimal
c final solution cost: 57
c CPU time: 11.983925
s OPTIMUM FOUND

c File: j907_4.smbi10.wcnf
c optimal
c final solution cost: 57
c CPU time: 1.404916
s OPTIMUM FOUND


rcpsp/heur_output_bi_constraints/Log=10/heurj90.txt
encoding rcpsp/j90.sm/j907_5.sm nv: 1727928 nc: 3540738 enctime: 30.47
encoding rcpsp/j90.sm/j907_5.sm nv: 285516 nc: 582393 enctime: 3.70
c File: j907_5.smnaivebi10.wcnf
c optimal
c final solution cost: 68
c CPU time: 5.973520
s OPTIMUM FOUND

c File: j907_5.smbi10.wcnf
c optimal
c final solution cost: 68
c CPU time: 0.734166
s OPTIMUM FOUND


rcpsp/heur_output_bi_constraints/Log=10/heurj90.txt
encoding rcpsp/j90.sm/j907_6.sm nv: 1665962 nc: 3429536 enctime: 29.88
encoding rcpsp/j90.sm/j907_6.sm nv: 299108 nc: 612905 enctime: 3.79
c File: j907_6.smnaivebi10.wcnf
c optimal
c final solution cost: 70
c CPU time: 6.260182
s OPTIMUM FOUND

c File: j907_6.smbi10.wcnf
c optimal
c final solution cost: 70
c CPU time: 0.778107
s OPTIMUM FOUND


rcpsp/heur_output_bi_constraints/Log=10/heurj90.txt
encoding rcpsp/j90.sm/j907_7.sm nv: 2047536 nc: 4173811 enctime: 34.52
encoding rcpsp/j90.sm/j907_7.sm nv: 399096 nc: 810811 enctime: 4.96
c File: j907_7.smnaivebi10.wcnf
c optimal
c final solution cost: 90
c CPU time: 5.721531
s OPTIMUM FOUND

c File: j907_7.smbi10.wcnf
c optimal
c final solution cost: 90
c CPU time: 0.807631
s OPTIMUM FOUND


rcpsp/heur_output_bi_constraints/Log=10/heurj90.txt
encoding rcpsp/j90.sm/j907_8.sm nv: 2192055 nc: 4447240 enctime: 36.44
encoding rcpsp/j90.sm/j907_8.sm nv: 290055 nc: 585640 enctime: 3.85
c File: j907_8.smnaivebi10.wcnf
c optimal
c final solution cost: 58
c CPU time: 6.255177
s OPTIMUM FOUND

c File: j907_8.smbi10.wcnf
c optimal
c final solution cost: 58
c CPU time: 0.595053
s OPTIMUM FOUND


rcpsp/heur_output_bi_constraints/Log=10/heurj90.txt
encoding rcpsp/j90.sm/j907_9.sm nv: 1627749 nc: 3378293 enctime: 30.82
encoding rcpsp/j90.sm/j907_9.sm nv: 266532 nc: 549896 enctime: 3.51
c File: j907_9.smnaivebi10.wcnf
c optimal
c final solution cost: 80
c CPU time: 5.502644
s OPTIMUM FOUND

c File: j907_9.smbi10.wcnf
c optimal
c final solution cost: 80
c CPU time: 0.604952
s OPTIMUM FOUND


rcpsp/heur_output_bi_constraints/Log=10/heurj90.txt
encoding rcpsp/j90.sm/j908_10.sm nv: 2053473 nc: 4176741 enctime: 35.16
encoding rcpsp/j90.sm/j908_10.sm nv: 334386 nc: 677214 enctime: 4.30
c File: j908_10.smnaivebi10.wcnf
c optimal
c final solution cost: 77
c CPU time: 6.010042
s OPTIMUM FOUND

c File: j908_10.smbi10.wcnf
c optimal
c final solution cost: 77
c CPU time: 0.635347
s OPTIMUM FOUND


rcpsp/heur_output_bi_constraints/Log=10/heurj90.txt
encoding rcpsp/j90.sm/j908_1.sm nv: 2484713 nc: 5079100 enctime: 43.80
encoding rcpsp/j90.sm/j908_1.sm nv: 502579 nc: 1024102 enctime: 6.28
c File: j908_1.smnaivebi10.wcnf
c optimal
c final solution cost: 96
c CPU time: 7.150046
s OPTIMUM FOUND

c File: j908_1.smbi10.wcnf
c optimal
c final solution cost: 96
c CPU time: 1.003393
s OPTIMUM FOUND


rcpsp/heur_output_bi_constraints/Log=10/heurj90.txt
encoding rcpsp/j90.sm/j908_2.sm nv: 1784102 nc: 3617833 enctime: 29.84
encoding rcpsp/j90.sm/j908_2.sm nv: 315092 nc: 636688 enctime: 3.96
c File: j908_2.smnaivebi10.wcnf
c optimal
c final solution cost: 71
c CPU time: 4.892122
s OPTIMUM FOUND

c File: j908_2.smbi10.wcnf
c optimal
c final solution cost: 71
c CPU time: 0.636302
s OPTIMUM FOUND


rcpsp/heur_output_bi_constraints/Log=10/heurj90.txt
encoding rcpsp/j90.sm/j908_3.sm nv: 2453993 nc: 4968310 enctime: 41.56
encoding rcpsp/j90.sm/j908_3.sm nv: 357769 nc: 721366 enctime: 4.66
c File: j908_3.smnaivebi10.wcnf
c optimal
c final solution cost: 70
c CPU time: 6.679268
s OPTIMUM FOUND

c File: j908_3.smbi10.wcnf
c optimal
c final solution cost: 70
c CPU time: 0.632002
s OPTIMUM FOUND


rcpsp/heur_output_bi_constraints/Log=10/heurj90.txt
encoding rcpsp/j90.sm/j908_4.sm nv: 2587200 nc: 5289899 enctime: 45.61
encoding rcpsp/j90.sm/j908_4.sm nv: 388800 nc: 791423 enctime: 5.02
c File: j908_4.smnaivebi10.wcnf
c optimal
c final solution cost: 75
c CPU time: 7.597828
s OPTIMUM FOUND

c File: j908_4.smbi10.wcnf
c optimal
c final solution cost: 75
c CPU time: 0.779253
s OPTIMUM FOUND


rcpsp/heur_output_bi_constraints/Log=10/heurj90.txt
encoding rcpsp/j90.sm/j908_5.sm nv: 2696265 nc: 5446439 enctime: 44.11
encoding rcpsp/j90.sm/j908_5.sm nv: 359502 nc: 723149 enctime: 4.70
c File: j908_5.smnaivebi10.wcnf
c optimal
c final solution cost: 62
c CPU time: 7.363855
s OPTIMUM FOUND

c File: j908_5.smbi10.wcnf
c optimal
c final solution cost: 62
c CPU time: 0.703036
s OPTIMUM FOUND


rcpsp/heur_output_bi_constraints/Log=10/heurj90.txt
encoding rcpsp/j90.sm/j908_6.sm nv: 2814870 nc: 5689641 enctime: 47.09
encoding rcpsp/j90.sm/j908_6.sm nv: 401328 nc: 807999 enctime: 5.27
c File: j908_6.smnaivebi10.wcnf
c optimal
c final solution cost: 70
c CPU time: 7.518849
s OPTIMUM FOUND

c File: j908_6.smbi10.wcnf
c optimal
c final solution cost: 70
c CPU time: 0.772477
s OPTIMUM FOUND


rcpsp/heur_output_bi_constraints/Log=10/heurj90.txt
encoding rcpsp/j90.sm/j908_7.sm nv: 2418930 nc: 4923483 enctime: 42.16
encoding rcpsp/j90.sm/j908_7.sm nv: 374697 nc: 759592 enctime: 4.90
c File: j908_7.smnaivebi10.wcnf
c optimal
c final solution cost: 77
c CPU time: 6.882319
s OPTIMUM FOUND

c File: j908_7.smbi10.wcnf
c optimal
c final solution cost: 77
c CPU time: 0.755562
s OPTIMUM FOUND


rcpsp/heur_output_bi_constraints/Log=10/heurj90.txt
encoding rcpsp/j90.sm/j908_8.sm nv: 2798148 nc: 5657316 enctime: 46.78
encoding rcpsp/j90.sm/j908_8.sm nv: 384606 nc: 774375 enctime: 5.13
c File: j908_8.smnaivebi10.wcnf
c optimal
c final solution cost: 67
c CPU time: 7.751484
s OPTIMUM FOUND

c File: j908_8.smbi10.wcnf
c optimal
c final solution cost: 67
c CPU time: 0.807664
s OPTIMUM FOUND


rcpsp/heur_output_bi_constraints/Log=10/heurj90.txt
encoding rcpsp/j90.sm/j908_9.sm nv: 2540154 nc: 5189106 enctime: 45.70
encoding rcpsp/j90.sm/j908_9.sm nv: 458444 nc: 933126 enctime: 5.98
c File: j908_9.smnaivebi10.wcnf
c optimal
c final solution cost: 97
c CPU time: 7.425967
s OPTIMUM FOUND

c File: j908_9.smbi10.wcnf
c optimal
c final solution cost: 97
c CPU time: 0.833489
s OPTIMUM FOUND


rcpsp/heur_output_bi_constraints/Log=10/heurj90.txt
encoding rcpsp/j90.sm/j909_10.sm nv: 1833304 nc: 3804537 enctime: 33.81
encoding rcpsp/j90.sm/j909_10.sm nv: 507628 nc: 1050819 enctime: 7.34
c File: j909_10.smnaivebi10.wcnf
c timeout
c final solution cost: 119
c CPU time: 64.614196
s UNKNOWN

c File: j909_10.smbi10.wcnf
c timeout
c final solution cost: 118
c CPU time: 60.867458
s UNKNOWN


rcpsp/heur_output_bi_constraints/Log=10/heurj90.txt
encoding rcpsp/j90.sm/j909_1.sm nv: 1756800 nc: 3632121 enctime: 32.22
encoding rcpsp/j90.sm/j909_1.sm nv: 442860 nc: 913055 enctime: 5.58
c File: j909_1.smnaivebi10.wcnf
c timeout
c final solution cost: 112
c CPU time: 64.281331
s UNKNOWN

c File: j909_1.smbi10.wcnf
c timeout
c final solution cost: 109
c CPU time: 60.750047
s UNKNOWN


rcpsp/heur_output_bi_constraints/Log=10/heurj90.txt
encoding rcpsp/j90.sm/j909_2.sm nv: 1837668 nc: 3832841 enctime: 34.87
encoding rcpsp/j90.sm/j909_2.sm nv: 564627 nc: 1174955 enctime: 8.12
c File: j909_2.smnaivebi10.wcnf
c timeout
c final solution cost: 136
c CPU time: 64.854171
s UNKNOWN

c File: j909_2.smbi10.wcnf
c timeout
c final solution cost: 133
c CPU time: 61.005114
s UNKNOWN


rcpsp/heur_output_bi_constraints/Log=10/heurj90.txt
encoding rcpsp/j90.sm/j909_3.sm nv: 1725977 nc: 3567789 enctime: 30.53
encoding rcpsp/j90.sm/j909_3.sm nv: 467072 nc: 963039 enctime: 6.62
c File: j909_3.smnaivebi10.wcnf
c timeout
c final solution cost: 112
c CPU time: 64.331786
s UNKNOWN

c File: j909_3.smbi10.wcnf
c timeout
c final solution cost: 108
c CPU time: 60.791476
s UNKNOWN


rcpsp/heur_output_bi_constraints/Log=10/heurj90.txt
encoding rcpsp/j90.sm/j909_4.sm nv: 1746944 nc: 3643263 enctime: 31.82
encoding rcpsp/j90.sm/j909_4.sm nv: 535684 nc: 1114598 enctime: 7.47
c File: j909_4.smnaivebi10.wcnf
c timeout
c final solution cost: 140
c CPU time: 64.547849
s UNKNOWN

c File: j909_4.smbi10.wcnf
c timeout
c final solution cost: 134
c CPU time: 60.952701
s UNKNOWN


rcpsp/heur_output_bi_constraints/Log=10/heurj90.txt
encoding rcpsp/j90.sm/j909_5.sm nv: 1551396 nc: 3254402 enctime: 30.05
encoding rcpsp/j90.sm/j909_5.sm nv: 497904 nc: 1041930 enctime: 6.22
c File: j909_5.smnaivebi10.wcnf
c timeout
c final solution cost: 151
c CPU time: 64.509987
s UNKNOWN

c File: j909_5.smbi10.wcnf
c timeout
c final solution cost: 149
c CPU time: 60.943956
s UNKNOWN


rcpsp/heur_output_bi_constraints/Log=10/heurj90.txt
encoding rcpsp/j90.sm/j909_6.sm nv: 1768348 nc: 3681836 enctime: 32.94
encoding rcpsp/j90.sm/j909_6.sm nv: 522150 nc: 1084546 enctime: 7.60
c File: j909_6.smnaivebi10.wcnf
c timeout
c final solution cost: 136
c CPU time: 64.713948
s UNKNOWN

c File: j909_6.smbi10.wcnf
c timeout
c final solution cost: 131
c CPU time: 60.954132
s UNKNOWN


rcpsp/heur_output_bi_constraints/Log=10/heurj90.txt
encoding rcpsp/j90.sm/j909_7.sm nv: 1748428 nc: 3637063 enctime: 32.98
encoding rcpsp/j90.sm/j909_7.sm nv: 472736 nc: 980717 enctime: 6.96
c File: j909_7.smnaivebi10.wcnf
c timeout
c final solution cost: 193
c CPU time: 64.791326
s UNKNOWN

c File: j909_7.smbi10.wcnf
c timeout
c final solution cost: 113
c CPU time: 60.820054
s UNKNOWN


rcpsp/heur_output_bi_constraints/Log=10/heurj90.txt
encoding rcpsp/j90.sm/j909_8.sm nv: 1714330 nc: 3570656 enctime: 32.11
encoding rcpsp/j90.sm/j909_8.sm nv: 498590 nc: 1035936 enctime: 7.28
c File: j909_8.smnaivebi10.wcnf
c timeout
c final solution cost: 121
c CPU time: 64.450757
s UNKNOWN

c File: j909_8.smbi10.wcnf
c timeout
c final solution cost: 125
c CPU time: 60.897755
s UNKNOWN


rcpsp/heur_output_bi_constraints/Log=10/heurj90.txt
encoding rcpsp/j90.sm/j909_9.sm nv: 1625272 nc: 3375835 enctime: 30.32
encoding rcpsp/j90.sm/j909_9.sm nv: 470120 nc: 974027 enctime: 5.87
c File: j909_9.smnaivebi10.wcnf
c timeout
c final solution cost: 126
c CPU time: 64.444577
s UNKNOWN

c File: j909_9.smbi10.wcnf
c timeout
c final solution cost: 130
c CPU time: 60.851399
s UNKNOWN


